NAME : rbg050a.tw.2953.tour
COMMENT : Length = 2953
COMMENT : Found by LKH [Keld Helsgaun] Thu Jan 16 16:41:03 2020
TYPE : TOUR
DIMENSION : 51
TOUR_SECTION
1
3
2
4
25
27
24
12
8
49
33
6
7
21
20
5
9
18
13
14
22
15
31
26
35
16
29
10
46
23
36
17
43
19
11
28
39
51
34
38
37
30
32
40
41
42
44
45
47
50
48
-1
EOF
